Printing Adjacency Matrix 
0  0  0  0  0  0  0  0  0  0  0  0  0  0  0  0  0  0  0  
0  0  0  0  0  0  0  0  0  0  0  0  0  0  0  0  0  0  0  
0  0  0  0  0  0  0  0  0  0  0  0  0  0  0  0  0  0  0  
0  0  0  0  0  0  0  0  0  0  0  0  0  0  0  0  0  0  0  
0  0  0  0  0  0  0  0  0  0  0  0  0  0  0  0  0  0  0  
0  0  0  0  0  0  0  0  0  0  0  0  0  0  0  0  0  0  0  
0  0  0  0  0  0  0  0  0  0  0  0  0  0  0  0  0  0  0  
0  0  0  0  0  0  0  0  0  0  0  0  0  0  0  0  0  0  0  
0  0  0  0  0  0  0  0  0  0  0  0  0  0  0  0  0  0  0  
0  0  0  0  0  0  0  0  0  0  0  0  0  0  0  0  0  0  0  
0  0  0  0  0  0  0  0  0  0  0  0  0  0  0  0  0  0  0  
0  0  0  0  0  0  0  0  0  0  0  0  0  0  0  0  0  0  0  
0  0  0  0  0  0  0  0  0  0  0  0  0  0  0  0  0  0  0  
0  0  0  0  0  0  0  0  0  0  0  0  0  0  0  0  0  0  0  
0  0  0  0  0  0  0  0  0  0  0  0  0  0  0  0  0  0  0  
0  0  0  0  0  0  0  0  0  0  0  0  0  0  0  0  0  0  0  
0  0  0  0  0  0  0  0  0  0  0  0  0  0  0  0  0  0  0  
0  0  0  0  0  0  0  0  0  0  0  0  0  0  0  0  0  0  0  
0  0  0  0  0  0  0  0  0  0  0  0  0  0  0  0  0  0  0  
Printing Adjacency Matrix 
0  0  0  1  0  0  0  0  0  1  0  0  0  0  0  1  1  0  0  
0  1  0  1  1  1  0  0  0  0  0  0  0  0  0  0  0  0  0  
0  0  0  1  0  1  0  0  1  0  0  1  0  0  0  0  0  0  0  
1  1  1  0  0  0  0  1  1  1  1  0  0  0  1  1  0  0  0  
0  1  0  0  0  1  1  0  0  0  0  0  1  1  0  0  0  1  0  
0  1  1  0  1  0  0  0  0  0  0  1  0  1  0  0  0  0  1  
0  0  0  0  1  0  0  0  0  0  0  0  1  0  0  0  0  1  0  
0  0  0  1  0  0  0  0  0  0  1  0  0  0  0  0  0  0  0  
0  0  1  1  0  0  0  0  0  0  0  1  0  0  0  0  0  0  0  
1  0  0  1  0  0  0  0  0  1  0  0  0  0  0  1  0  0  0  
0  0  0  1  0  0  0  1  0  0  1  0  0  0  0  0  0  0  0  
0  0  1  0  0  1  0  0  1  0  0  1  0  0  0  0  0  0  0  
0  0  0  0  1  0  1  0  0  0  0  0  0  1  0  0  0  0  0  
0  0  0  0  1  1  0  0  0  0  0  0  1  1  0  0  0  0  0  
0  0  0  1  0  0  0  0  0  0  0  0  0  0  1  0  0  0  0  
1  0  0  1  0  0  0  0  0  1  0  0  0  0  0  0  1  0  0  
1  0  0  0  0  0  0  0  0  0  0  0  0  0  0  1  1  0  0  
0  0  0  0  1  0  1  0  0  0  0  0  0  0  0  0  0  1  0  
0  0  0  0  0  1  0  0  0  0  0  0  0  0  0  0  0  0  1  
Printing Adjacency Matrix 
0  0  0  1  0  0  0  0  0  1  0  0  0  0  0  1  1  0  0  
0  1  0  1  1  1  0  0  0  0  0  0  0  0  0  0  0  0  0  
0  0  0  1  0  1  0  0  1  0  0  1  0  0  0  0  0  0  0  
1  1  1  0  0  0  0  1  1  1  1  0  0  0  1  1  0  0  0  
0  1  0  0  0  1  1  0  0  0  0  0  1  1  0  0  0  1  0  
0  1  1  0  1  2  0  0  0  0  0  1  0  1  0  0  0  0  1  
0  0  0  0  1  0  0  0  0  0  0  0  1  0  0  0  0  1  0  
0  0  0  1  0  0  0  2  0  0  1  0  0  0  0  0  0  0  0  
0  0  1  1  0  0  0  0  2  0  0  1  0  0  0  0  0  0  0  
1  0  0  1  0  0  0  0  0  1  0  0  0  0  0  1  0  0  0  
0  0  0  1  0  0  0  1  0  0  1  0  0  0  0  0  0  0  0  
0  0  1  0  0  1  0  0  1  0  0  1  0  0  0  0  0  0  0  
0  0  0  0  1  0  1  0  0  0  0  0  2  1  0  0  0  0  0  
0  0  0  0  1  1  0  0  0  0  0  0  1  1  0  0  0  0  0  
0  0  0  1  0  0  0  0  0  0  0  0  0  0  1  0  0  0  0  
1  0  0  1  0  0  0  0  0  1  0  0  0  0  0  2  1  0  0  
1  0  0  0  0  0  0  0  0  0  0  0  0  0  0  1  1  0  0  
0  0  0  0  1  0  1  0  0  0  0  0  0  0  0  0  0  1  0  
0  0  0  0  0  1  0  0  0  0  0  0  0  0  0  0  0  0  1  
Printing Adjacency Matrix 
3  0  0  1  0  0  0  0  0  1  0  0  0  0  0  1  1  0  0  
0  1  0  1  1  1  0  0  0  0  0  0  0  0  0  0  0  0  0  
0  0  3  1  0  1  0  0  1  0  0  1  0  0  0  0  0  0  0  
1  1  1  0  0  0  0  1  1  1  1  0  0  0  1  1  0  0  0  
0  1  0  0  0  1  1  0  0  0  0  0  1  1  0  0  0  1  0  
0  1  1  0  1  2  0  0  0  0  0  1  0  1  0  0  0  0  1  
0  0  0  0  1  0  3  0  0  0  0  0  1  0  0  0  0  1  0  
0  0  0  1  0  0  0  2  0  0  1  0  0  0  0  0  0  0  0  
0  0  1  1  0  0  0  0  2  0  0  1  0  0  0  0  0  0  0  
1  0  0  1  0  0  0  0  0  1  0  0  0  0  0  1  0  0  0  
0  0  0  1  0  0  0  1  0  0  1  0  0  0  0  0  0  0  0  
0  0  1  0  0  1  0  0  1  0  0  1  0  0  0  0  0  0  0  
0  0  0  0  1  0  1  0  0  0  0  0  2  1  0  0  0  0  0  
0  0  0  0  1  1  0  0  0  0  0  0  1  1  0  0  0  0  0  
0  0  0  1  0  0  0  0  0  0  0  0  0  0  1  0  0  0  0  
1  0  0  1  0  0  0  0  0  1  0  0  0  0  0  2  1  0  0  
1  0  0  0  0  0  0  0  0  0  0  0  0  0  0  1  1  0  0  
0  0  0  0  1  0  1  0  0  0  0  0  0  0  0  0  0  1  0  
0  0  0  0  0  1  0  0  0  0  0  0  0  0  0  0  0  0  1  
Printing Adjacency Matrix 
3  0  0  1  0  0  0  0  0  1  0  0  0  0  0  1  1  0  0  
0  1  0  1  1  1  0  0  0  0  0  0  0  0  0  0  0  0  0  
0  0  3  1  0  1  0  0  1  0  0  1  0  0  0  0  0  0  0  
1  1  1  4  0  0  0  1  1  1  1  0  0  0  1  1  0  0  0  
0  1  0  0  4  1  1  0  0  0  0  0  1  1  0  0  0  1  0  
0  1  1  0  1  2  0  0  0  0  0  1  0  1  0  0  0  0  1  
0  0  0  0  1  0  3  0  0  0  0  0  1  0  0  0  0  1  0  
0  0  0  1  0  0  0  2  0  0  1  0  0  0  0  0  0  0  0  
0  0  1  1  0  0  0  0  2  0  0  1  0  0  0  0  0  0  0  
1  0  0  1  0  0  0  0  0  1  0  0  0  0  0  1  0  0  0  
0  0  0  1  0  0  0  1  0  0  1  0  0  0  0  0  0  0  0  
0  0  1  0  0  1  0  0  1  0  0  1  0  0  0  0  0  0  0  
0  0  0  0  1  0  1  0  0  0  0  0  2  1  0  0  0  0  0  
0  0  0  0  1  1  0  0  0  0  0  0  1  1  0  0  0  0  0  
0  0  0  1  0  0  0  0  0  0  0  0  0  0  1  0  0  0  0  
1  0  0  1  0  0  0  0  0  1  0  0  0  0  0  2  1  0  0  
1  0  0  0  0  0  0  0  0  0  0  0  0  0  0  1  1  0  0  
0  0  0  0  1  0  1  0  0  0  0  0  0  0  0  0  0  1  0  
0  0  0  0  0  1  0  0  0  0  0  0  0  0  0  0  0  0  1  


****************Final Print******************
The total number of colors used were 4
Printing Adjacency Matrix 
3  0  0  1  0  0  0  0  0  1  0  0  0  0  0  1  1  0  0  
0  1  0  1  1  1  0  0  0  0  0  0  0  0  0  0  0  0  0  
0  0  3  1  0  1  0  0  1  0  0  1  0  0  0  0  0  0  0  
1  1  1  4  0  0  0  1  1  1  1  0  0  0  1  1  0  0  0  
0  1  0  0  4  1  1  0  0  0  0  0  1  1  0  0  0  1  0  
0  1  1  0  1  2  0  0  0  0  0  1  0  1  0  0  0  0  1  
0  0  0  0  1  0  3  0  0  0  0  0  1  0  0  0  0  1  0  
0  0  0  1  0  0  0  2  0  0  1  0  0  0  0  0  0  0  0  
0  0  1  1  0  0  0  0  2  0  0  1  0  0  0  0  0  0  0  
1  0  0  1  0  0  0  0  0  1  0  0  0  0  0  1  0  0  0  
0  0  0  1  0  0  0  1  0  0  1  0  0  0  0  0  0  0  0  
0  0  1  0  0  1  0  0  1  0  0  1  0  0  0  0  0  0  0  
0  0  0  0  1  0  1  0  0  0  0  0  2  1  0  0  0  0  0  
0  0  0  0  1  1  0  0  0  0  0  0  1  1  0  0  0  0  0  
0  0  0  1  0  0  0  0  0  0  0  0  0  0  1  0  0  0  0  
1  0  0  1  0  0  0  0  0  1  0  0  0  0  0  2  1  0  0  
1  0  0  0  0  0  0  0  0  0  0  0  0  0  0  1  1  0  0  
0  0  0  0  1  0  1  0  0  0  0  0  0  0  0  0  0  1  0  
0  0  0  0  0  1  0  0  0  0  0  0  0  0  0  0  0  0  1  
Node	Color
19	1
15	1
18	1
17	1
11	1
8	2
14	1
13	2
12	1
10	1
9	2
7	3
2	1
16	2
3	3
1	3
6	2
5	4
4	4
